p cnf 240 640
1 2 -3 0
1 -2 3 0
-1 2 3 0
-1 -2 -3 0
4 5 -6 0
4 -5 6 0
-4 5 6 0
-4 -5 -6 0
7 8 9 0
7 -8 -9 0
-7 8 -9 0
-7 -8 9 0
10 11 -12 0
10 -11 12 0
-10 11 12 0
-10 -11 -12 0
13 14 15 0
13 -14 -15 0
-13 14 -15 0
-13 -14 15 0
16 17 18 0
16 -17 -18 0
-16 17 -18 0
-16 -17 18 0
19 20 21 0
19 -20 -21 0
-19 20 -21 0
-19 -20 21 0
22 23 24 0
22 -23 -24 0
-22 23 -24 0
-22 -23 24 0
25 26 -27 0
25 -26 27 0
-25 26 27 0
-25 -26 -27 0
28 29 30 0
28 -29 -30 0
-28 29 -30 0
-28 -29 30 0
31 32 33 0
31 -32 -33 0
-31 32 -33 0
-31 -32 33 0
34 35 36 0
34 -35 -36 0
-34 35 -36 0
-34 -35 36 0
37 38 -39 0
37 -38 39 0
-37 38 39 0
-37 -38 -39 0
40 41 -42 0
40 -41 42 0
-40 41 42 0
-40 -41 -42 0
43 44 -45 0
43 -44 45 0
-43 44 45 0
-43 -44 -45 0
46 47 48 0
46 -47 -48 0
-46 47 -48 0
-46 -47 48 0
49 50 -51 0
49 -50 51 0
-49 50 51 0
-49 -50 -51 0
52 53 54 0
52 -53 -54 0
-52 53 -54 0
-52 -53 54 0
55 56 -57 0
55 -56 57 0
-55 56 57 0
-55 -56 -57 0
58 59 -60 0
58 -59 60 0
-58 59 60 0
-58 -59 -60 0
31 61 62 0
31 -61 -62 0
-31 61 -62 0
-31 -61 62 0
63 64 65 0
63 -64 -65 0
-63 64 -65 0
-63 -64 65 0
66 67 -68 0
66 -67 68 0
-66 67 68 0
-66 -67 -68 0
52 55 -69 0
52 -55 69 0
-52 55 69 0
-52 -55 -69 0
70 71 72 0
70 -71 -72 0
-70 71 -72 0
-70 -71 72 0
73 74 -75 0
73 -74 75 0
-73 74 75 0
-73 -74 -75 0
37 43 76 0
37 -43 -76 0
-37 43 -76 0
-37 -43 76 0
32 77 78 0
32 -77 -78 0
-32 77 -78 0
-32 -77 78 0
79 80 -81 0
79 -80 81 0
-79 80 81 0
-79 -80 -81 0
22 82 -83 0
22 -82 83 0
-22 82 83 0
-22 -82 -83 0
84 85 86 0
84 -85 -86 0
-84 85 -86 0
-84 -85 86 0
87 88 -89 0
87 -88 89 0
-87 88 89 0
-87 -88 -89 0
90 91 -92 0
90 -91 92 0
-90 91 92 0
-90 -91 -92 0
82 93 94 0
82 -93 -94 0
-82 93 -94 0
-82 -93 94 0
23 95 -96 0
23 -95 96 0
-23 95 96 0
-23 -95 -96 0
97 98 -99 0
97 -98 99 0
-97 98 99 0
-97 -98 -99 0
24 100 -101 0
24 -100 101 0
-24 100 101 0
-24 -100 -101 0
66 102 -103 0
66 -102 103 0
-66 102 103 0
-66 -102 -103 0
16 38 -104 0
16 -38 104 0
-16 38 104 0
-16 -38 -104 0
10 77 105 0
10 -77 -105 0
-10 77 -105 0
-10 -77 105 0
7 106 107 0
7 -106 -107 0
-7 106 -107 0
-7 -106 107 0
34 40 -108 0
34 -40 108 0
-34 40 108 0
-34 -40 -108 0
46 109 110 0
46 -109 -110 0
-46 109 -110 0
-46 -109 110 0
111 112 113 0
111 -112 -113 0
-111 112 -113 0
-111 -112 113 0
114 115 116 0
114 -115 -116 0
-114 115 -116 0
-114 -115 116 0
114 117 118 0
114 -117 -118 0
-114 117 -118 0
-114 -117 118 0
28 119 120 0
28 -119 -120 0
-28 119 -120 0
-28 -119 120 0
1 35 121 0
1 -35 -121 0
-1 35 -121 0
-1 -35 121 0
79 122 -123 0
79 -122 123 0
-79 122 123 0
-79 -122 -123 0
76 124 125 0
76 -124 -125 0
-76 124 -125 0
-76 -124 125 0
49 126 127 0
49 -126 -127 0
-49 126 -127 0
-49 -126 127 0
41 128 -129 0
41 -128 129 0
-41 128 129 0
-41 -128 -129 0
90 130 -131 0
90 -130 131 0
-90 130 131 0
-90 -130 -131 0
47 132 133 0
47 -132 -133 0
-47 132 -133 0
-47 -132 133 0
70 134 135 0
70 -134 -135 0
-70 134 -135 0
-70 -134 135 0
48 58 -136 0
48 -58 136 0
-48 58 136 0
-48 -58 -136 0
71 137 138 0
71 -137 -138 0
-71 137 -138 0
-71 -137 138 0
4 132 139 0
4 -132 -139 0
-4 132 -139 0
-4 -132 139 0
140 141 142 0
140 -141 -142 0
-140 141 -142 0
-140 -141 142 0
143 144 -145 0
143 -144 145 0
-143 144 145 0
-143 -144 -145 0
146 147 148 0
146 -147 -148 0
-146 147 -148 0
-146 -147 148 0
53 115 -149 0
53 -115 149 0
-53 115 149 0
-53 -115 -149 0
106 150 151 0
106 -150 -151 0
-106 150 -151 0
-106 -150 151 0
13 72 137 0
13 -72 -137 0
-13 72 -137 0
-13 -72 137 0
29 152 153 0
29 -152 -153 0
-29 152 -153 0
-29 -152 153 0
8 73 154 0
8 -73 -154 0
-8 73 -154 0
-8 -73 154 0
155 156 -157 0
155 -156 157 0
-155 156 157 0
-155 -156 -157 0
100 158 -159 0
100 -158 159 0
-100 158 159 0
-100 -158 -159 0
19 140 160 0
19 -140 -160 0
-19 140 -160 0
-19 -140 160 0
80 161 162 0
80 -161 -162 0
-80 161 -162 0
-80 -161 162 0
5 50 152 0
5 -50 -152 0
-5 50 -152 0
-5 -50 152 0
6 138 -163 0
6 -138 163 0
-6 138 163 0
-6 -138 -163 0
51 164 -165 0
51 -164 165 0
-51 164 165 0
-51 -164 -165 0
74 124 -166 0
74 -124 166 0
-74 124 166 0
-74 -124 -166 0
2 143 167 0
2 -143 -167 0
-2 143 -167 0
-2 -143 167 0
168 169 -170 0
168 -169 170 0
-168 169 170 0
-168 -169 -170 0
59 168 171 0
59 -168 -171 0
-59 168 -171 0
-59 -168 171 0
130 161 172 0
130 -161 -172 0
-130 161 -172 0
-130 -161 172 0
93 136 173 0
93 -136 -173 0
-93 136 -173 0
-93 -136 173 0
133 174 175 0
133 -174 -175 0
-133 174 -175 0
-133 -174 175 0
176 177 -178 0
176 -177 178 0
-176 177 178 0
-176 -177 -178 0
164 179 180 0
164 -179 -180 0
-164 179 -180 0
-164 -179 180 0
81 181 -182 0
81 -181 182 0
-81 181 182 0
-81 -181 -182 0
174 183 184 0
174 -183 -184 0
-174 183 -184 0
-174 -183 184 0
20 185 186 0
20 -185 -186 0
-20 185 -186 0
-20 -185 186 0
39 158 187 0
39 -158 -187 0
-39 158 -187 0
-39 -158 187 0
119 166 188 0
119 -166 -188 0
-119 166 -188 0
-119 -166 188 0
25 111 -189 0
25 -111 189 0
-25 111 189 0
-25 -111 -189 0
91 190 -191 0
91 -190 191 0
-91 190 191 0
-91 -190 -191 0
17 78 192 0
17 -78 -192 0
-17 78 -192 0
-17 -78 192 0
112 128 -193 0
112 -128 193 0
-112 128 193 0
-112 -128 -193 0
160 176 -194 0
160 -176 194 0
-160 176 194 0
-160 -176 -194 0
14 116 195 0
14 -116 -195 0
-14 116 -195 0
-14 -116 195 0
196 197 198 0
196 -197 -198 0
-196 197 -198 0
-196 -197 198 0
56 167 -199 0
56 -167 199 0
-56 167 199 0
-56 -167 -199 0
44 179 -200 0
44 -179 200 0
-44 179 200 0
-44 -179 -200 0
188 201 -202 0
188 -201 202 0
-188 201 202 0
-188 -201 -202 0
121 203 204 0
121 -203 -204 0
-121 203 -204 0
-121 -203 204 0
141 149 -205 0
141 -149 205 0
-141 149 205 0
-141 -149 -205 0
144 181 -206 0
144 -181 206 0
-144 181 206 0
-144 -181 -206 0
165 207 208 0
165 -207 -208 0
-165 207 -208 0
-165 -207 208 0
15 97 -154 0
15 -97 154 0
-15 97 154 0
-15 -97 -154 0
87 183 -209 0
87 -183 209 0
-87 183 209 0
-87 -183 -209 0
122 210 -211 0
122 -210 211 0
-122 210 211 0
-122 -210 -211 0
83 190 212 0
83 -190 -212 0
-83 190 -212 0
-83 -190 212 0
61 146 213 0
61 -146 -213 0
-61 146 -213 0
-61 -146 213 0
54 175 -200 0
54 -175 200 0
-54 175 200 0
-54 -175 -200 0
63 102 113 0
63 -102 -113 0
-63 102 -113 0
-63 -102 113 0
101 187 -203 0
101 -187 203 0
-101 187 203 0
-101 -187 -203 0
134 150 -172 0
134 -150 172 0
-134 150 172 0
-134 -150 -172 0
98 214 215 0
98 -214 -215 0
-98 214 -215 0
-98 -214 215 0
107 173 -216 0
107 -173 216 0
-107 173 216 0
-107 -173 -216 0
88 205 217 0
88 -205 -217 0
-88 205 -217 0
-88 -205 217 0
217 218 219 0
217 -218 -219 0
-217 218 -219 0
-217 -218 219 0
193 220 -221 0
193 -220 221 0
-193 220 221 0
-193 -220 -221 0
67 171 222 0
67 -171 -222 0
-67 171 -222 0
-67 -171 222 0
223 224 225 0
223 -224 -225 0
-223 224 -225 0
-223 -224 225 0
64 201 226 0
64 -201 -226 0
-64 201 -226 0
-64 -201 226 0
151 196 227 0
151 -196 -227 0
-151 196 -227 0
-151 -196 227 0
75 210 -228 0
75 -210 228 0
-75 210 228 0
-75 -210 -228 0
68 104 -229 0
68 -104 229 0
-68 104 229 0
-68 -104 -229 0
207 214 227 0
207 -214 -227 0
-207 214 -227 0
-207 -214 227 0
26 126 -230 0
26 -126 230 0
-26 126 230 0
-26 -126 -230 0
162 220 226 0
162 -220 -226 0
-162 220 -226 0
-162 -220 226 0
84 159 231 0
84 -159 -231 0
-84 159 -231 0
-84 -159 231 0
45 92 -222 0
45 -92 222 0
-45 92 222 0
-45 -92 -222 0
185 232 233 0
185 -232 -233 0
-185 232 -233 0
-185 -232 233 0
108 194 -230 0
108 -194 230 0
-108 194 230 0
-108 -194 -230 0
155 228 -234 0
155 -228 234 0
-155 228 234 0
-155 -228 -234 0
195 232 -235 0
195 -232 235 0
-195 232 235 0
-195 -232 -235 0
18 120 -192 0
18 -120 192 0
-18 120 192 0
-18 -120 -192 0
9 153 236 0
9 -153 -236 0
-9 153 -236 0
-9 -153 236 0
117 147 -229 0
117 -147 229 0
-117 147 229 0
-117 -147 -229 0
163 212 -237 0
163 -212 237 0
-163 212 237 0
-163 -212 -237 0
85 89 -156 0
85 -89 156 0
-85 89 156 0
-85 -89 -156 0
118 186 234 0
118 -186 -234 0
-118 186 -234 0
-118 -186 234 0
30 131 197 0
30 -131 -197 0
-30 131 -197 0
-30 -131 197 0
99 209 221 0
99 -209 -221 0
-99 209 -221 0
-99 -209 221 0
223 238 239 0
223 -238 -239 0
-223 238 -239 0
-223 -238 239 0
127 213 218 0
127 -213 -218 0
-127 213 -218 0
-127 -213 218 0
95 103 219 0
95 -103 -219 0
-95 103 -219 0
-95 -103 219 0
69 86 -96 0
69 -86 96 0
-69 86 96 0
-69 -86 -96 0
180 199 202 0
180 -199 -202 0
-180 199 -202 0
-180 -199 202 0
11 231 238 0
11 -231 -238 0
-11 231 -238 0
-11 -231 238 0
3 27 -33 0
3 -27 33 0
-3 27 33 0
-3 -27 -33 0
65 139 240 0
65 -139 -240 0
-65 139 -240 0
-65 -139 240 0
60 169 -233 0
60 -169 233 0
-60 169 233 0
-60 -169 -233 0
42 105 239 0
42 -105 -239 0
-42 105 -239 0
-42 -105 239 0
177 216 240 0
177 -216 -240 0
-177 216 -240 0
-177 -216 240 0
109 125 -224 0
109 -125 224 0
-109 125 224 0
-109 -125 -224 0
21 142 -206 0
21 -142 206 0
-21 142 206 0
-21 -142 -206 0
148 178 204 0
148 -178 -204 0
-148 178 -204 0
-148 -178 204 0
62 225 -237 0
62 -225 237 0
-62 225 237 0
-62 -225 -237 0
110 135 215 0
110 -135 -215 0
-110 135 -215 0
-110 -135 215 0
36 123 -211 0
36 -123 211 0
-36 123 211 0
-36 -123 -211 0
170 189 -208 0
170 -189 208 0
-170 189 208 0
-170 -189 -208 0
57 94 -182 0
57 -94 182 0
-57 94 182 0
-57 -94 -182 0
12 129 -157 0
12 -129 157 0
-12 129 157 0
-12 -129 -157 0
191 198 -235 0
191 -198 235 0
-191 198 235 0
-191 -198 -235 0
145 184 -236 0
145 -184 236 0
-145 184 236 0
-145 -184 -236 0
